c random cnf
p cnf 50 50
-8 35 0
37 49 0
-3 -32 0
-11 50 0
-22 49 0
-8 -33 0
-15 -34 0
-7 9 0
13 34 0
22 -38 0
-32 33 0
10 -42 0
5 -40 0
9 -36 0
38 -49 0
-12 36 0
-11 -19 0
-12 41 0
29 -34 0
-2 23 0
28 -31 0
35 -44 0
9 -15 0
25 -43 0
39 -41 0
-5 -12 0
-40 -49 0
-23 -28 0
17 -24 0
-8 -23 0
-13 -16 0
33 49 0
-16 47 0
-10 44 0
-3 -30 0
13 -23 0
18 -21 0
2 -32 0
6 -41 0
24 -41 0
-14 -48 0
-26 40 0
13 -49 0
6 30 0
-30 36 0
11 -46 0
4 20 0
22 33 0
1 12 0
-16 -24 0
